0001 9
0002 9
0003 3
0004 5
0005 2
0006 13
0007 13
0008 13
0009 13
0010 6
0011 6
0012 6
0013 1
0014 8
0015 6
0016 8
0017 13
0018 1
0019 8
0020 13
0021 10
0022 8
0023 13
0024 13
0025 2
0026 1
0027 11
0028 13
0029 3
0030 8
0031 13
0032 13
0033 8
0034 6
0035 6
0036 1
0037 10
0038 5
0039 13
0040 1
0041 10
0042 8
0043 2
0044 2
0045 8
0046 1
0047 8
0048 13
0049 3
0050 6
0051 10
0052 1
0053 1
0054 13
0055 1
0056 8
0057 13
0058 1
0059 2
0060 13
0061 1
0062 1
0063 13
0064 1
0065 1
0066 8
0067 13
0068 5
0069 5
0070 5
0071 4
0072 4
0073 10
0074 10
0075 10
0076 10
0077 1
0078 1
0079 10
0080 10
0081 10
0082 13
0083 10
0084 6
0085 2
0086 8
0087 10
0088 2
0089 2
0090 10
0091 10
0092 10
0093 13
0094 2
0095 8
0096 8
0097 11
0098 6
0099 6
0100 8
0101 6
0102 6
0103 12
0104 12
0105 2
0106 2
0107 12
0108 12
0109 1
0110 1
0111 1
0112 10
0113 8
0114 8
0115 13
0116 8
0117 10
0118 13
0119 1
0120 10
0121 10
0122 2
0123 8
0124 13
0125 1
0126 8
0127 2
0128 10
0129 10
0130 2
0131 4
0132 6
0133 7
0134 7
0135 12
0136 9
0137 4
0138 7
0139 3